% Auto-generated by scripts/generate_dzn.py
% problem_type   = regex
% instance       = regex_37
% source_json    = instances_json/2_high_blowup/regex_37.json
% blowup         = 25.375
% representation = DFA

mode = 0;

var_count = 31;
Q = 406;
S = 3;
q0 = 1;
F = {278, 279, 280, 281, 282, 283, 284, 285, 286, 287, 288, 289, 290, 291, 292, 293, 294, 295, 296, 297, 298, 299, 300, 301, 302, 303, 304, 305, 306, 307, 308, 309, 310, 311, 312, 313, 314, 315, 316, 317, 318, 319, 320, 321, 322, 323, 324, 325, 326, 327, 328, 329, 330, 331, 332, 333, 334, 335, 336, 337, 338, 339, 340, 341, 342, 343, 344, 345, 346, 347, 348, 349, 350, 351, 352, 353, 354, 355, 356, 357, 358, 359, 360, 361, 362, 363, 364, 365, 366, 367, 368, 369, 370, 371, 372, 373, 374, 375, 376, 377, 378, 379, 380, 381, 382, 383, 384, 385, 386, 387, 388, 389, 390, 391, 392, 393, 394, 395, 396, 397, 398, 399, 400, 401, 402, 403, 404, 405, 406};
d_dfa = array2d(1..406, 1..3, [
  1, 2, 1,
  1, 3, 1,
  1, 3, 4,
  5, 6, 5,
  7, 8, 7,
  7, 9, 7,
  10, 11, 10,
  10, 12, 10,
  10, 12, 13,
  14, 15, 14,
  14, 16, 14,
  14, 16, 17,
  18, 19, 18,
  20, 21, 20,
  20, 22, 20,
  20, 22, 23,
  24, 25, 24,
  26, 27, 26,
  26, 28, 26,
  29, 30, 29,
  29, 31, 29,
  29, 31, 32,
  33, 34, 33,
  35, 36, 35,
  35, 37, 35,
  38, 39, 38,
  38, 40, 38,
  38, 40, 41,
  42, 43, 42,
  42, 44, 42,
  42, 44, 45,
  46, 47, 46,
  48, 49, 48,
  48, 50, 48,
  51, 52, 51,
  51, 53, 51,
  51, 53, 54,
  55, 56, 55,
  55, 57, 55,
  55, 57, 58,
  59, 60, 59,
  61, 62, 61,
  61, 63, 61,
  61, 63, 64,
  65, 66, 65,
  67, 68, 67,
  67, 69, 67,
  70, 71, 70,
  70, 72, 70,
  70, 72, 73,
  74, 75, 74,
  74, 76, 74,
  74, 76, 77,
  78, 79, 78,
  80, 81, 80,
  80, 82, 80,
  80, 82, 83,
  84, 85, 84,
  86, 87, 86,
  86, 88, 86,
  89, 90, 89,
  89, 91, 89,
  89, 91, 92,
  93, 94, 93,
  95, 96, 95,
  95, 97, 95,
  98, 99, 98,
  98, 100, 98,
  98, 100, 101,
  102, 103, 102,
  102, 104, 102,
  102, 104, 105,
  106, 107, 106,
  108, 109, 108,
  108, 110, 108,
  108, 110, 111,
  112, 113, 112,
  114, 115, 114,
  114, 116, 114,
  117, 118, 117,
  117, 119, 117,
  117, 119, 120,
  121, 122, 121,
  123, 124, 123,
  123, 125, 123,
  126, 127, 126,
  126, 128, 126,
  126, 128, 129,
  130, 131, 130,
  130, 132, 130,
  130, 132, 133,
  134, 135, 134,
  136, 137, 136,
  136, 138, 136,
  139, 140, 139,
  139, 141, 139,
  139, 141, 142,
  143, 144, 143,
  143, 145, 143,
  143, 145, 146,
  147, 148, 147,
  149, 150, 149,
  149, 151, 149,
  149, 151, 152,
  153, 154, 153,
  155, 156, 155,
  155, 157, 155,
  158, 159, 158,
  158, 160, 158,
  158, 160, 161,
  162, 163, 162,
  164, 165, 164,
  164, 166, 164,
  167, 168, 167,
  167, 169, 167,
  167, 169, 170,
  171, 172, 171,
  171, 173, 171,
  171, 173, 174,
  175, 176, 175,
  177, 178, 177,
  177, 179, 177,
  180, 181, 180,
  180, 182, 180,
  180, 182, 183,
  184, 185, 184,
  184, 186, 184,
  184, 186, 187,
  188, 189, 188,
  190, 191, 190,
  190, 192, 190,
  190, 192, 193,
  194, 195, 194,
  196, 197, 196,
  196, 198, 196,
  199, 200, 199,
  199, 201, 199,
  199, 201, 202,
  203, 204, 203,
  203, 205, 203,
  203, 205, 206,
  207, 208, 207,
  209, 210, 209,
  209, 211, 209,
  209, 211, 212,
  213, 214, 213,
  215, 216, 215,
  215, 217, 215,
  218, 219, 218,
  218, 220, 218,
  218, 220, 221,
  222, 223, 222,
  224, 225, 224,
  224, 226, 224,
  227, 228, 227,
  227, 229, 227,
  227, 229, 230,
  231, 232, 231,
  231, 233, 231,
  231, 233, 234,
  235, 236, 235,
  237, 238, 237,
  237, 239, 237,
  240, 241, 240,
  240, 242, 240,
  240, 242, 243,
  244, 245, 244,
  244, 246, 244,
  244, 246, 247,
  248, 249, 248,
  250, 251, 250,
  250, 252, 250,
  250, 252, 253,
  254, 255, 254,
  256, 257, 256,
  256, 258, 256,
  259, 260, 259,
  259, 261, 259,
  259, 261, 262,
  263, 264, 263,
  263, 265, 263,
  263, 265, 266,
  267, 268, 267,
  269, 270, 269,
  269, 271, 269,
  269, 271, 272,
  273, 274, 273,
  275, 276, 275,
  275, 277, 275,
  278, 279, 278,
  278, 280, 278,
  278, 280, 281,
  282, 283, 282,
  284, 285, 284,
  284, 286, 284,
  287, 288, 287,
  287, 289, 287,
  287, 289, 290,
  291, 292, 291,
  291, 293, 291,
  291, 293, 294,
  295, 296, 295,
  297, 298, 297,
  297, 299, 297,
  297, 299, 300,
  301, 302, 301,
  303, 304, 303,
  303, 305, 303,
  306, 307, 306,
  306, 308, 306,
  306, 308, 309,
  310, 311, 310,
  312, 313, 312,
  312, 314, 312,
  315, 316, 315,
  315, 317, 315,
  315, 317, 318,
  319, 320, 319,
  319, 321, 319,
  319, 321, 322,
  323, 324, 323,
  325, 326, 325,
  325, 327, 325,
  328, 329, 328,
  328, 330, 328,
  328, 330, 331,
  332, 333, 332,
  332, 334, 332,
  332, 334, 335,
  336, 337, 336,
  338, 339, 338,
  338, 340, 338,
  338, 340, 341,
  342, 343, 342,
  344, 345, 344,
  344, 346, 344,
  347, 348, 347,
  347, 349, 347,
  347, 349, 350,
  351, 352, 351,
  351, 353, 351,
  351, 353, 354,
  355, 356, 355,
  357, 358, 357,
  357, 359, 357,
  357, 359, 360,
  361, 362, 361,
  363, 364, 363,
  363, 365, 363,
  366, 367, 366,
  366, 368, 366,
  366, 368, 369,
  370, 371, 370,
  372, 373, 372,
  372, 374, 372,
  375, 376, 375,
  375, 377, 375,
  375, 377, 378,
  379, 380, 379,
  379, 381, 379,
  379, 381, 382,
  383, 384, 383,
  385, 386, 385,
  385, 387, 385,
  385, 387, 388,
  389, 390, 389,
  391, 392, 391,
  391, 393, 391,
  394, 395, 394,
  394, 396, 394,
  394, 396, 397,
  398, 399, 398,
  400, 401, 400,
  400, 402, 400,
  403, 404, 403,
  403, 405, 403,
  403, 405, 406,
  1, 2, 1,
  1, 3, 1,
  1, 3, 4,
  5, 6, 5,
  7, 8, 7,
  7, 9, 7,
  10, 11, 10,
  10, 12, 10,
  10, 12, 13,
  14, 15, 14,
  14, 16, 14,
  14, 16, 17,
  18, 19, 18,
  20, 21, 20,
  20, 22, 20,
  20, 22, 23,
  24, 25, 24,
  26, 27, 26,
  26, 28, 26,
  29, 30, 29,
  29, 31, 29,
  29, 31, 32,
  33, 34, 33,
  35, 36, 35,
  35, 37, 35,
  38, 39, 38,
  38, 40, 38,
  38, 40, 41,
  42, 43, 42,
  42, 44, 42,
  42, 44, 45,
  46, 47, 46,
  48, 49, 48,
  48, 50, 48,
  51, 52, 51,
  51, 53, 51,
  51, 53, 54,
  55, 56, 55,
  55, 57, 55,
  55, 57, 58,
  59, 60, 59,
  61, 62, 61,
  61, 63, 61,
  61, 63, 64,
  65, 66, 65,
  67, 68, 67,
  67, 69, 67,
  70, 71, 70,
  70, 72, 70,
  70, 72, 73,
  74, 75, 74,
  74, 76, 74,
  74, 76, 77,
  78, 79, 78,
  80, 81, 80,
  80, 82, 80,
  80, 82, 83,
  84, 85, 84,
  86, 87, 86,
  86, 88, 86,
  89, 90, 89,
  89, 91, 89,
  89, 91, 92,
  93, 94, 93,
  95, 96, 95,
  95, 97, 95,
  98, 99, 98,
  98, 100, 98,
  98, 100, 101,
  102, 103, 102,
  102, 104, 102,
  102, 104, 105,
  106, 107, 106,
  108, 109, 108,
  108, 110, 108,
  108, 110, 111,
  112, 113, 112,
  114, 115, 114,
  114, 116, 114,
  117, 118, 117,
  117, 119, 117,
  117, 119, 120,
  121, 122, 121,
  123, 124, 123,
  123, 125, 123,
  126, 127, 126,
  126, 128, 126,
  126, 128, 129,
  130, 131, 130,
  130, 132, 130,
  130, 132, 133,
  134, 135, 134,
  136, 137, 136,
  136, 138, 136,
  139, 140, 139,
  139, 141, 139,
  139, 141, 142,
  143, 144, 143,
  143, 145, 143,
  143, 145, 146,
  147, 148, 147,
  149, 150, 149,
  149, 151, 149,
  149, 151, 152,
  153, 154, 153,
  155, 156, 155,
  155, 157, 155,
  158, 159, 158,
  158, 160, 158,
  158, 160, 161,
  162, 163, 162,
  164, 165, 164,
  164, 166, 164,
  167, 168, 167,
  167, 169, 167,
  167, 169, 170,
  171, 172, 171,
  171, 173, 171,
  171, 173, 174,
  175, 176, 175,
  177, 178, 177,
  177, 179, 177,
  180, 181, 180,
  180, 182, 180,
  180, 182, 183,
  184, 185, 184,
  184, 186, 184,
  184, 186, 187,
  188, 189, 188
]);
d_nfa = array2d(1..406, 1..3, [
  {}, {}, {},
  {}, {}, {},
  {}, {}, {},
  {}, {}, {},
  {}, {}, {},
  {}, {}, {},
  {}, {}, {},
  {}, {}, {},
  {}, {}, {},
  {}, {}, {},
  {}, {}, {},
  {}, {}, {},
  {}, {}, {},
  {}, {}, {},
  {}, {}, {},
  {}, {}, {},
  {}, {}, {},
  {}, {}, {},
  {}, {}, {},
  {}, {}, {},
  {}, {}, {},
  {}, {}, {},
  {}, {}, {},
  {}, {}, {},
  {}, {}, {},
  {}, {}, {},
  {}, {}, {},
  {}, {}, {},
  {}, {}, {},
  {}, {}, {},
  {}, {}, {},
  {}, {}, {},
  {}, {}, {},
  {}, {}, {},
  {}, {}, {},
  {}, {}, {},
  {}, {}, {},
  {}, {}, {},
  {}, {}, {},
  {}, {}, {},
  {}, {}, {},
  {}, {}, {},
  {}, {}, {},
  {}, {}, {},
  {}, {}, {},
  {}, {}, {},
  {}, {}, {},
  {}, {}, {},
  {}, {}, {},
  {}, {}, {},
  {}, {}, {},
  {}, {}, {},
  {}, {}, {},
  {}, {}, {},
  {}, {}, {},
  {}, {}, {},
  {}, {}, {},
  {}, {}, {},
  {}, {}, {},
  {}, {}, {},
  {}, {}, {},
  {}, {}, {},
  {}, {}, {},
  {}, {}, {},
  {}, {}, {},
  {}, {}, {},
  {}, {}, {},
  {}, {}, {},
  {}, {}, {},
  {}, {}, {},
  {}, {}, {},
  {}, {}, {},
  {}, {}, {},
  {}, {}, {},
  {}, {}, {},
  {}, {}, {},
  {}, {}, {},
  {}, {}, {},
  {}, {}, {},
  {}, {}, {},
  {}, {}, {},
  {}, {}, {},
  {}, {}, {},
  {}, {}, {},
  {}, {}, {},
  {}, {}, {},
  {}, {}, {},
  {}, {}, {},
  {}, {}, {},
  {}, {}, {},
  {}, {}, {},
  {}, {}, {},
  {}, {}, {},
  {}, {}, {},
  {}, {}, {},
  {}, {}, {},
  {}, {}, {},
  {}, {}, {},
  {}, {}, {},
  {}, {}, {},
  {}, {}, {},
  {}, {}, {},
  {}, {}, {},
  {}, {}, {},
  {}, {}, {},
  {}, {}, {},
  {}, {}, {},
  {}, {}, {},
  {}, {}, {},
  {}, {}, {},
  {}, {}, {},
  {}, {}, {},
  {}, {}, {},
  {}, {}, {},
  {}, {}, {},
  {}, {}, {},
  {}, {}, {},
  {}, {}, {},
  {}, {}, {},
  {}, {}, {},
  {}, {}, {},
  {}, {}, {},
  {}, {}, {},
  {}, {}, {},
  {}, {}, {},
  {}, {}, {},
  {}, {}, {},
  {}, {}, {},
  {}, {}, {},
  {}, {}, {},
  {}, {}, {},
  {}, {}, {},
  {}, {}, {},
  {}, {}, {},
  {}, {}, {},
  {}, {}, {},
  {}, {}, {},
  {}, {}, {},
  {}, {}, {},
  {}, {}, {},
  {}, {}, {},
  {}, {}, {},
  {}, {}, {},
  {}, {}, {},
  {}, {}, {},
  {}, {}, {},
  {}, {}, {},
  {}, {}, {},
  {}, {}, {},
  {}, {}, {},
  {}, {}, {},
  {}, {}, {},
  {}, {}, {},
  {}, {}, {},
  {}, {}, {},
  {}, {}, {},
  {}, {}, {},
  {}, {}, {},
  {}, {}, {},
  {}, {}, {},
  {}, {}, {},
  {}, {}, {},
  {}, {}, {},
  {}, {}, {},
  {}, {}, {},
  {}, {}, {},
  {}, {}, {},
  {}, {}, {},
  {}, {}, {},
  {}, {}, {},
  {}, {}, {},
  {}, {}, {},
  {}, {}, {},
  {}, {}, {},
  {}, {}, {},
  {}, {}, {},
  {}, {}, {},
  {}, {}, {},
  {}, {}, {},
  {}, {}, {},
  {}, {}, {},
  {}, {}, {},
  {}, {}, {},
  {}, {}, {},
  {}, {}, {},
  {}, {}, {},
  {}, {}, {},
  {}, {}, {},
  {}, {}, {},
  {}, {}, {},
  {}, {}, {},
  {}, {}, {},
  {}, {}, {},
  {}, {}, {},
  {}, {}, {},
  {}, {}, {},
  {}, {}, {},
  {}, {}, {},
  {}, {}, {},
  {}, {}, {},
  {}, {}, {},
  {}, {}, {},
  {}, {}, {},
  {}, {}, {},
  {}, {}, {},
  {}, {}, {},
  {}, {}, {},
  {}, {}, {},
  {}, {}, {},
  {}, {}, {},
  {}, {}, {},
  {}, {}, {},
  {}, {}, {},
  {}, {}, {},
  {}, {}, {},
  {}, {}, {},
  {}, {}, {},
  {}, {}, {},
  {}, {}, {},
  {}, {}, {},
  {}, {}, {},
  {}, {}, {},
  {}, {}, {},
  {}, {}, {},
  {}, {}, {},
  {}, {}, {},
  {}, {}, {},
  {}, {}, {},
  {}, {}, {},
  {}, {}, {},
  {}, {}, {},
  {}, {}, {},
  {}, {}, {},
  {}, {}, {},
  {}, {}, {},
  {}, {}, {},
  {}, {}, {},
  {}, {}, {},
  {}, {}, {},
  {}, {}, {},
  {}, {}, {},
  {}, {}, {},
  {}, {}, {},
  {}, {}, {},
  {}, {}, {},
  {}, {}, {},
  {}, {}, {},
  {}, {}, {},
  {}, {}, {},
  {}, {}, {},
  {}, {}, {},
  {}, {}, {},
  {}, {}, {},
  {}, {}, {},
  {}, {}, {},
  {}, {}, {},
  {}, {}, {},
  {}, {}, {},
  {}, {}, {},
  {}, {}, {},
  {}, {}, {},
  {}, {}, {},
  {}, {}, {},
  {}, {}, {},
  {}, {}, {},
  {}, {}, {},
  {}, {}, {},
  {}, {}, {},
  {}, {}, {},
  {}, {}, {},
  {}, {}, {},
  {}, {}, {},
  {}, {}, {},
  {}, {}, {},
  {}, {}, {},
  {}, {}, {},
  {}, {}, {},
  {}, {}, {},
  {}, {}, {},
  {}, {}, {},
  {}, {}, {},
  {}, {}, {},
  {}, {}, {},
  {}, {}, {},
  {}, {}, {},
  {}, {}, {},
  {}, {}, {},
  {}, {}, {},
  {}, {}, {},
  {}, {}, {},
  {}, {}, {},
  {}, {}, {},
  {}, {}, {},
  {}, {}, {},
  {}, {}, {},
  {}, {}, {},
  {}, {}, {},
  {}, {}, {},
  {}, {}, {},
  {}, {}, {},
  {}, {}, {},
  {}, {}, {},
  {}, {}, {},
  {}, {}, {},
  {}, {}, {},
  {}, {}, {},
  {}, {}, {},
  {}, {}, {},
  {}, {}, {},
  {}, {}, {},
  {}, {}, {},
  {}, {}, {},
  {}, {}, {},
  {}, {}, {},
  {}, {}, {},
  {}, {}, {},
  {}, {}, {},
  {}, {}, {},
  {}, {}, {},
  {}, {}, {},
  {}, {}, {},
  {}, {}, {},
  {}, {}, {},
  {}, {}, {},
  {}, {}, {},
  {}, {}, {},
  {}, {}, {},
  {}, {}, {},
  {}, {}, {},
  {}, {}, {},
  {}, {}, {},
  {}, {}, {},
  {}, {}, {},
  {}, {}, {},
  {}, {}, {},
  {}, {}, {},
  {}, {}, {},
  {}, {}, {},
  {}, {}, {},
  {}, {}, {},
  {}, {}, {},
  {}, {}, {},
  {}, {}, {},
  {}, {}, {},
  {}, {}, {},
  {}, {}, {},
  {}, {}, {},
  {}, {}, {},
  {}, {}, {},
  {}, {}, {},
  {}, {}, {},
  {}, {}, {},
  {}, {}, {},
  {}, {}, {},
  {}, {}, {},
  {}, {}, {},
  {}, {}, {},
  {}, {}, {},
  {}, {}, {},
  {}, {}, {},
  {}, {}, {},
  {}, {}, {},
  {}, {}, {},
  {}, {}, {},
  {}, {}, {},
  {}, {}, {},
  {}, {}, {},
  {}, {}, {},
  {}, {}, {},
  {}, {}, {},
  {}, {}, {},
  {}, {}, {},
  {}, {}, {},
  {}, {}, {},
  {}, {}, {},
  {}, {}, {},
  {}, {}, {},
  {}, {}, {},
  {}, {}, {},
  {}, {}, {},
  {}, {}, {},
  {}, {}, {},
  {}, {}, {},
  {}, {}, {},
  {}, {}, {},
  {}, {}, {},
  {}, {}, {},
  {}, {}, {},
  {}, {}, {},
  {}, {}, {},
  {}, {}, {},
  {}, {}, {},
  {}, {}, {},
  {}, {}, {},
  {}, {}, {},
  {}, {}, {},
  {}, {}, {},
  {}, {}, {},
  {}, {}, {},
  {}, {}, {},
  {}, {}, {},
  {}, {}, {},
  {}, {}, {},
  {}, {}, {},
  {}, {}, {},
  {}, {}, {}
]);
